-1 25 82 22 79 40 65 46 30 27 
25 -1 97 31 16 80 61 81 96 42 
82 97 -1 85 91 89 92 5 76 34 
22 31 85 -1 91 65 96 60 72 69 
79 16 91 91 -1 31 77 97 40 7 
40 80 89 65 31 -1 39 29 25 67 
65 61 92 96 77 39 -1 70 58 79 
46 81 5 60 97 29 70 -1 15 62 
30 96 76 72 40 25 58 15 -1 50 
27 42 34 69 7 67 79 62 50 -1 
